GPU_version/outputs/rc203.out
Total number of lines in the file: 110
Total number of nodes including depot: 101
Customer 1: (40, 50), Demand: 0, Time Window: [0, 960], Service Time: 0
Customer 2: (25, 85), Demand: 20, Time Window: [0, 911], Service Time: 10
Customer 3: (22, 75), Demand: 30, Time Window: [0, 919], Service Time: 10
Customer 4: (22, 85), Demand: 10, Time Window: [0, 910], Service Time: 10
Customer 5: (20, 80), Demand: 40, Time Window: [644, 764], Service Time: 10
calling MST kernel
Post Processing Route
Post 2 opt Processing Route
2-opt between 20 and 22 improved cost from 1694.17 to 1689.40
2-opt between 24 and 25 improved cost from 1689.40 to 1689.16
Elapsed time: 0.750021 seconds
Final Route: 
Route #1: 80 91 
Route #2: 92 95 62 50 34 31 29 27 26 28 30 32 
Route #3: 33 67 84 85 63 
Route #4: 76 89 51 56 
Route #5: 64 94 96 54 72 41 
Route #6: 39 38 37 
Route #7: 36 35 
Route #8: 42 44 43 40 81 61 68 93 71 90 
Route #9: 65 66 83 82 
Route #10: 99 52 57 86 74 
Route #11: 87 59 97 58 75 77 25 
Route #12: 23 21 48 18 19 49 20 22 24 
Route #13: 69 98 53 
Route #14: 88 60 78 73 79 7 8 46 4 
Route #15: 45 5 3 1 6 2 12 14 47 17 
Route #16: 15 16 11 10 
Route #17: 9 13 55 100 70 
Route #18: Total Distance: 1694.17
Final route is valid
