outputs/rc203.txt.out
filename: RC203 
Vehicles: 25, Capacity: 1000
Total customers : 101
No of routes: 15
Route #1: 90 65 82 99 52 86 74 57
Route #2: 87 59 97 75 58 77 25
Route #3: 23 21 48 18 19 49 20 22 24 83 66
Route #4: 69 98 53
Route #5: 88 60 78 73 79 7 6 2 8 46 4
Route #6: 1 3 5 45 12 14 47 15 16 17
Route #7: 11 10
Route #8: 9 13 55 100 70 80 91
Route #9: 92 95 62 50 34 31 29 27 26 28 30 32
Route #10: 67 33 63 85 84
Route #11: 89 76 51 56
Route #12: 64 94 96 54 72 41
Route #13: 39 42 44 43 40 37 38
Route #14: 61 36 35 81
Route #15: 68 71 93
Cost 1517
